c   #vars: 82   #clauses: 361   #literals: 980
c 
p cnf 82 361
-1 -2 0
18 19 54 -78 0
-4 -5 0
-6 -7 0
18 19 63 64 0
-8 -9 0
-10 -11 0
-12 -13 0
-14 -15 0
-16 -17 0
-18 -19 0
-20 -21 0
-22 -23 0
-24 -25 0
-26 -27 0
-28 -29 0
46 47 80 81 0
-30 -31 0
-32 -33 0
-34 -35 0
-36 -37 0
-38 -39 0
-40 -41 0
-42 -43 0
-44 -45 0
46 47 76 77 0
-46 -47 0
-48 -49 0
-50 -51 0
-8 53 67 68 0
24 25 76 77 0
10 11 80 81 0
-38 50 51 73 0
-55 -56 0
-57 -58 0
-59 -60 0
-61 -62 0
-63 -64 0
-65 -66 0
-67 -68 0
-69 -70 0
-71 -72 0
46 47 61 62 0
34 35 74 75 0
30 31 74 75 0
1 2 44 45 0
-74 -75 0
-76 -77 0
28 29 71 72 0
-78 -79 0
8 9 53 -67 0
8 9 53 -57 0
-80 -81 0
-1 -44 0
-2 -45 0
-1 -48 0
-2 -49 0
6 7 38 39 0
-1 -57 0
-2 -58 0
6 7 53 -67 0
-1 -67 0
-2 -68 0
10 11 30 31 0
3 -65 69 70 0
-1 -78 0
-2 -79 0
28 29 61 62 0
-8 18 19 54 0
-3 -33 0
12 13 59 60 0
8 9 54 -78 0
-3 -66 0
36 37 61 62 0
8 9 -18 54 0
-3 -70 0
1 2 78 79 0
6 7 55 56 0
-4 -40 0
-5 -41 0
6 7 50 51 0
-4 -46 0
-5 -47 0
26 27 78 79 0
-4 -48 0
-5 -49 0
1 2 48 49 0
-4 -76 0
-5 -77 0
28 29 52 -65 0
-4 -80 0
-5 -81 0
-6 -38 0
-7 -39 0
52 65 66 -82 0
-6 -50 0
-7 -51 0
-6 53 57 58 0
-7 -53 0
55 56 59 60 0
-6 -55 0
-7 -56 0
44 45 80 81 0
-6 -74 0
-7 -75 0
55 56 61 62 0
16 17 67 68 0
-8 -32 0
-9 -33 0
-9 -53 0
20 21 46 47 0
-24 50 51 73 0
-9 -54 0
26 27 74 75 0
-8 -76 0
-9 -77 0
-28 52 65 66 0
-8 -78 0
-9 -79 0
34 35 59 60 0
-10 -30 0
-11 -31 0
12 13 63 64 0
-10 -38 0
-11 -39 0
-18 54 78 79 0
-10 -55 0
-11 -56 0
12 13 42 43 0
-10 -65 0
-11 -66 0
42 43 74 75 0
-10 -69 0
-11 -70 0
12 13 34 35 0
-10 -80 0
-11 -81 0
18 19 40 41 0
-12 -34 0
-13 -35 0
16 17 44 45 0
-12 -42 0
-13 -43 0
4 5 46 47 0
-12 -57 0
-13 -58 0
-12 -59 0
-13 -60 0
16 17 69 70 0
-12 -63 0
-13 -64 0
4 5 48 49 0
-12 -82 0
28 29 59 60 0
-14 -34 0
-15 -35 0
-8 54 78 79 0
-14 -42 0
-15 -43 0
8 9 76 77 0
-14 -65 0
-15 -66 0
-24 39 73 0
-14 -69 0
-15 -70 0
3 32 33 -65 0
-28 -43 52 82 0
-16 -32 0
-17 -33 0
38 39 -50 73 0
-16 -44 0
-17 -45 0
3 65 66 -69 0
-16 -67 0
-17 -68 0
-13 -28 52 82 0
-16 -69 0
-17 -70 0
42 43 -52 82 0
-18 -32 0
-19 -33 0
1 2 57 58 0
-18 -40 0
-19 -41 0
22 23 63 64 0
24 25 -50 73 0
-19 -54 0
20 21 78 79 0
-18 -63 0
-19 -64 0
50 51 71 72 0
-18 -80 0
-19 -81 0
-20 -34 0
-21 -35 0
28 29 80 81 0
-20 -46 0
-21 -47 0
4 5 76 77 0
-20 -48 0
-21 -49 0
26 27 46 47 0
-20 -78 0
-21 -79 0
20 21 48 49 0
-22 -36 0
-23 -37 0
-22 -40 0
-23 -41 0
32 33 63 64 0
-22 -61 0
-23 -62 0
50 51 69 70 0
-22 -63 0
-23 -64 0
18 19 32 33 0
-22 -65 0
-23 -66 0
16 17 32 33 0
-22 -76 0
-23 -77 0
6 7 -8 53 0
-24 -38 0
-25 -39 0
1 2 67 68 0
-24 -46 0
-25 -47 0
40 41 71 72 0
-25 -73 0
48 49 76 77 0
-24 -76 0
-25 -77 0
28 29 36 37 0
-26 -44 0
-27 -45 0
30 31 65 66 0
-26 -46 0
-27 -47 0
38 39 63 64 0
-26 -74 0
-27 -75 0
8 9 32 33 0
-26 -78 0
-27 -79 0
32 33 80 81 0
-28 -36 0
-29 -37 0
28 29 38 39 0
-28 -38 0
-29 -39 0
-6 53 67 68 0
-29 -52 0
4 5 80 81 0
-28 -59 0
-29 -60 0
22 23 65 66 0
-28 -61 0
-29 -62 0
-28 -71 0
-29 -72 0
10 11 38 39 0
-28 -80 0
-29 -81 0
12 13 57 58 0
-13 42 43 82 0
20 21 34 35 0
-30 -65 0
-31 -66 0
14 15 34 35 0
-30 -71 0
-31 -72 0
3 32 33 -69 0
-30 -74 0
-31 -75 0
18 19 80 81 0
-30 -80 0
-31 -81 0
14 15 69 70 0
-32 -63 0
-33 -64 0
22 23 61 62 0
-32 -80 0
-33 -81 0
-34 -59 0
-35 -60 0
4 5 40 41 0
-34 -74 0
-35 -75 0
24 25 46 47 0
-36 -61 0
-37 -62 0
28 29 52 -82 0
-36 -78 0
-37 -79 0
-38 -63 0
-39 -64 0
10 11 69 70 0
42 43 61 62 0
3 -32 69 70 0
30 31 80 81 0
-43 52 -65 82 0
-39 -73 0
53 -57 67 68 0
-40 -67 0
-41 -68 0
14 15 42 43 0
-40 -71 0
-41 -72 0
26 27 44 45 0
-42 -61 0
-43 -62 0
-42 -74 0
-43 -75 0
-6 8 9 53 0
-42 -82 0
-44 -76 0
-45 -77 0
-44 -80 0
-45 -81 0
10 11 65 66 0
-46 -61 0
-47 -62 0
22 23 76 77 0
-46 -76 0
-47 -77 0
44 45 76 77 0
-46 -80 0
-47 -81 0
6 7 74 75 0
-48 -76 0
-49 -77 0
14 15 65 66 0
-50 -69 0
-51 -70 0
30 31 71 72 0
-50 -71 0
-51 -72 0
40 41 67 68 0
-13 52 -65 82 0
-51 -73 0
6 7 53 -57 0
53 57 58 -67 0
-52 -66 0
3 -32 65 66 0
-8 53 57 58 0
36 37 78 79 0
12 13 -43 82 0
8 9 78 79 0
12 13 -52 82 0
-53 -58 0
22 23 36 37 0
-53 -68 0
10 11 55 56 0
25 -38 73 0
-54 -79 0
24 25 38 39 0
-55 -59 0
-56 -60 0
22 23 40 41 0
-55 -61 0
-56 -62 0
